36 36
23
3 3 10 29
3 4 10 32
3 5 10 0
3 6 28 8
3 7 25 29
3 8 28 0
3 9 7 16
3 10 28 14
3 11 3 25
3 12 28 24
3 14 25 0
3 15 25 14
3 16 7 0
3 24 10 5
3 36 0 0
4 3 3 0
4 11 6 25
4 22 3 3
5 3 31 19
5 4 31 0
5 14 31 22
5 15 31 4
12 36 13 0
